c Random generated cnf formula, satisfiable: false
p cnf 10 50
-9 -6 -3 0
10 -3 -5 0
-1 8 10 0
-4 -9 2 0
-2 -7 5 0
-9 2 -6 0
-6 4 -8 0
-2 -1 -10 0
-5 7 -3 0
1 -4 2 0
9 5 4 0
7 6 5 0
-5 -6 -10 0
8 6 7 0
-6 9 -1 0
-2 -7 9 0
7 -9 -8 0
3 -10 1 0
-5 7 -2 0
-5 6 -7 0
9 -2 -5 0
6 -10 2 0
6 4 5 0
3 6 8 0
-3 -7 -5 0
8 -9 -5 0
-7 -5 1 0
-9 6 7 0
-1 -2 -6 0
-4 1 10 0
7 6 9 0
9 1 -2 0
-5 -2 -7 0
8 -7 -6 0
-7 4 -6 0
-4 -6 9 0
-9 10 1 0
3 -7 2 0
-8 9 2 0
5 -4 8 0
7 -9 -3 0
-4 -10 9 0
2 -8 4 0
-3 -7 -10 0
10 -1 -9 0
2 7 -8 0
9 -10 1 0
5 -4 9 0
2 1 -5 0
-9 -5 -1 0
